63 11 76 85 86 53 90 17 
92 47 36 45 27 69 28 88 44 78 79 81 9 49 72 97 5 74 24 68 13 93 77 
33 65 73 40 37 2 87 
61 51 41 95 10 56 1 35 82 59 70 94 
19 60 80 
62 66 4 
54 
16 67 18 55 48 98 96 26 52 
14 64 71 29 22 6 57 20 43 50 31 100 
39 42 7 15 23 21 30 99 38 8 84 91 46 83 12 34 32 75 3 25 58 89 

